NAME : traveling-santa-2018-prime-paths.30454.tour
COMMENT : Length = 30454
COMMENT : Found by LKH [Keld Helsgaun] Sun Jun 12 19:59:50 2022
TYPE : TOUR
DIMENSION : 100
TOUR_SECTION
1
8
90
79
24
69
40
88
97
11
60
95
41
10
53
43
94
35
36
82
6
98
39
5
76
31
9
57
13
4
47
37
44
38
83
68
19
86
78
91
48
85
55
87
96
42
34
51
58
61
14
54
62
81
100
25
49
18
92
84
50
7
46
65
33
66
22
71
64
2
75
16
67
77
93
3
70
15
17
59
45
21
26
74
23
63
28
72
89
27
80
99
12
30
29
20
52
32
73
56
-1
EOF
